#from Caballero, Grossmann (Design of distillation sequences: from conventional to fully thermally coupled distillation systems, Computers & Chemical Engineering)
#example 1 -reduced(2,3,5)

set C := 1, 2, 3;

param alpha := 1 5.7 2 3.2 3 1.0;